

[GiftBoxWrapper]	Class	FromItemKind	ToItemKind
0	1	5183	1390
1	1	5184	1391
2	1	5185	1392
3	1	5189	1393
4	1	5190	1394
5	1	5191	1395
6	1	5192	1396
7	1	5193	1397
8	1	5194	1398
9	1	5195	1399
10	1	5196	1400
11	1	5197	1401
12	1	5198	1402
13	1	5242	1403
14	1	5330	1404
15	1	5331	1405
16	1	5332	1406
17	1	5384	1407
18	1	5385	1408
19	1	5386	1409
20	1	5387	1410
21	1	5388	1411
22	1	5389	1412
23	1	5390	1413
24	1	5391	1414
25	1	5392	1415
26	1	5393	1416
27	1	5394	1417
28	1	5395	1418
29	1	5528	1517
30	1	5607	1518
31	1	5608	1519
32	1	5609	1520
33	1	5632	1539
34	1	5639	1547
35	1	5640	1548
36	1	5654	1560
37	1	5702	1610
38	1	5704	1611
39	1	5438	1612
40	1	5725	1632
41	1	5930	1838
42	1	5932	1839
43	1	6234	2140
44	1	6353	2261
45	1	6355	2262
46	1	1087	1390
47	1	1088	1391
48	1	1089	1392
49	1	1093	1393
50	1	1094	1394
51	1	1095	1395
52	1	1096	1396
53	1	1097	1397
54	1	1098	1398
55	1	1099	1399
56	1	1100	1400
57	1	1101	1401
58	1	1102	1402
59	1	1146	1403
60	1	1234	1404
61	1	1235	1405
62	1	1236	1406
63	1	1288	1407
64	1	1289	1408
65	1	1290	1409
66	1	1291	1410
67	1	1292	1411
68	1	1293	1412
69	1	1294	1413
70	1	1295	1414
71	1	1296	1415
72	1	1297	1416
73	1	1298	1417
74	1	1299	1418
75	1	1432	1517
76	1	1511	1518
77	1	1512	1519
78	1	1513	1520
79	1	1536	1539
80	1	1543	1547
81	1	1544	1548
82	1	1558	1560
83	1	1606	1610
84	1	1608	1611
85	1	1342	1612
86	1	1629	1632
87	1	1834	1838
88	1	1836	1839
89	1	2138	2140
90	1	2257	2261
91	1	2259	2262
92	1	2570	2572
93	1	2575	2577
94	1	6666	2572
95	1	6671	2577
96	1	3138	3140
97	1	7234	3140
98	2	1078	2605
99	2	1079	2606
100	2	1080	2607
101	2	1081	2608
102	2	1082	2609
103	2	1083	2610
104	2	1084	2611
105	2	1085	2612
106	2	1086	2613
107	2	1158	2614
108	2	1232	2615
109	2	1233	2616
110	2	1357	2618
111	2	1840	2620
112	2	1842	2621
113	2	2290	2622
114	2	2291	2623
115	2	2292	2624
116	2	2293	2625
117	2	2294	2626
118	2	2295	2627
119	2	2296	2628
120	2	2297	2629
121	2	2298	2630
122	2	2299	2631
123	2	2300	2632
124	2	2301	2633
125	2	2573	2634
126	2	2578	2635
127	2	5109	2604
128	2	5174	2605
129	2	5175	2606
130	2	5176	2607
131	2	5177	2608
132	2	5178	2609
133	2	5179	2610
134	2	5180	2611
135	2	5181	2612
136	2	5182	2613
137	2	5254	2614
138	2	5328	2615
139	2	5329	2616
140	2	5334	2617
141	2	5453	2618
142	2	5646	2619
143	2	5936	2620
144	2	5938	2621
145	2	6386	2622
146	2	6387	2623
147	2	6388	2624
148	2	6389	2625
149	2	6390	2626
150	2	6391	2627
151	2	6392	2628
152	2	6393	2629
153	2	6394	2630
154	2	6395	2631
155	2	6396	2632
156	2	6397	2633
157	2	6669	2634
158	2	6674	2635
159	2	3141	3143
160	2	7237	3143
161	3	1063	2168
162	3	1064	2169
163	3	1065	2170
164	3	1066	2171
165	3	1067	2172
166	3	1068	2173
167	3	1143	3160
168	3	1144	3161
169	3	1145	3162
170	3	3145	3151
171	3	3146	3152
172	3	3147	3153
173	3	3148	3154
174	3	3149	3155
175	3	3150	3156
176	3	5110	3157
177	3	5111	3158
178	3	5112	3159
179	3	5113	2165
180	3	5114	2166
181	3	5115	2167
182	3	5159	2168
183	3	5160	2169
184	3	5161	2170
185	3	5162	2171
186	3	5163	2172
187	3	5164	2173
188	3	5239	3160
189	3	5240	3161
190	3	5241	3162
191	3	5529	2174
192	3	5530	2175
193	3	5531	2176
194	3	6454	2361
195	3	6455	2362
196	3	6456	2363
197	3	7241	3151
198	3	7242	3152
199	3	7243	3153
200	3	7244	3154
201	3	7245	3155
202	3	7246	3156
203	4	4560	1419
204	4	4573	3163
205	4	4576	1423
206	4	4578	1422
207	4	4579	1420
208	4	4603	1421
209	4	5033	3164
210	4	5034	3165
211	4	5469	2198
212	4	5817	2184
213	4	5818	2185
214	4	5819	2186
215	4	5820	2187
216	4	5821	2188
217	4	5822	2189
218	4	5823	2190
219	4	5824	2191
220	4	5825	2192
221	4	5826	2193
222	4	6467	2372
